Route #1: 60 67 42 124 26 171 13 176 58 155 68 172 28
Route #2: 86 53 154 162 5 175 170 181 108 43 41 38
Route #3: 88 59 22 121 87 145 136 95 168 164 72 111 107 2
Route #4: 30 93 182 183 9 77 16 19 35 135 71 184 129
Route #5: 12 74 128 82 45 91 39 29 150 51 134 83
Route #6: 52 100 142 114 113 178 174 96 101 18 116 15 37
Route #7: 40 31 103 90 7 185 131 10 6 133 25 160 62
Route #8: 127 130 141 167 125 56 105 23 32 1 144 163
Route #9: 109 161 3 17 80 61 36 118 115 79 156
Route #10: 78 149 110 157 75 81 106 97 102 84 27 89
Route #11: 180 11 94 54 112 20 66 98 151 122 139 99
Route #12: 159 69 152 158 14 73 49 126 173 4 24 85
Route #13: 140 33 104 177 64 34 132 117 119 8 153 166
Route #14: 65 148 63 70 179 48 55 147 169 146 76 46 137
Route #15: 143 47 120 57 21 138 44 92 50 165 123
Cost 27771
